c "random instance"
p edges 150 4508
e 1 3
e 1 10
e 1 11
e 1 16
e 1 19
e 1 21
e 1 23
e 1 25
e 1 35
e 1 39
e 1 40
e 1 41
e 1 43
e 1 44
e 1 45
e 1 47
e 1 48
e 1 49
e 1 51
e 1 54
e 1 60
e 1 65
e 1 66
e 1 68
e 1 71
e 1 73
e 1 77
e 1 78
e 1 79
e 1 83
e 1 84
e 1 85
e 1 87
e 1 92
e 1 94
e 1 96
e 1 100
e 1 106
e 1 107
e 1 108
e 1 110
e 1 111
e 1 114
e 1 115
e 1 120
e 1 123
e 1 124
e 1 126
e 1 127
e 1 128
e 1 130
e 1 131
e 1 134
e 1 136
e 1 138
e 1 141
e 1 145
e 1 148
e 1 149
e 2 4
e 2 6
e 2 7
e 2 10
e 2 14
e 2 20
e 2 21
e 2 22
e 2 26
e 2 27
e 2 34
e 2 35
e 2 41
e 2 42
e 2 43
e 2 47
e 2 48
e 2 51
e 2 52
e 2 54
e 2 55
e 2 60
e 2 65
e 2 67
e 2 70
e 2 71
e 2 75
e 2 79
e 2 80
e 2 82
e 2 86
e 2 88
e 2 89
e 2 92
e 2 97
e 2 101
e 2 102
e 2 104
e 2 109
e 2 110
e 2 111
e 2 122
e 2 140
e 2 141
e 2 143
e 2 145
e 2 147
e 3 6
e 3 7
e 3 8
e 3 10
e 3 11
e 3 15
e 3 18
e 3 21
e 3 22
e 3 23
e 3 25
e 3 28
e 3 31
e 3 33
e 3 36
e 3 37
e 3 38
e 3 42
e 3 44
e 3 48
e 3 60
e 3 68
e 3 72
e 3 74
e 3 77
e 3 83
e 3 84
e 3 88
e 3 90
e 3 92
e 3 94
e 3 98
e 3 100
e 3 101
e 3 102
e 3 104
e 3 111
e 3 118
e 3 120
e 3 130
e 3 133
e 3 136
e 3 137
e 3 142
e 3 143
e 3 144
e 3 145
e 3 146
e 4 9
e 4 11
e 4 12
e 4 16
e 4 17
e 4 19
e 4 20
e 4 21
e 4 22
e 4 25
e 4 35
e 4 36
e 4 37
e 4 40
e 4 41
e 4 42
e 4 47
e 4 49
e 4 55
e 4 61
e 4 62
e 4 63
e 4 66
e 4 68
e 4 69
e 4 71
e 4 72
e 4 74
e 4 79
e 4 80
e 4 82
e 4 83
e 4 90
e 4 91
e 4 92
e 4 94
e 4 95
e 4 96
e 4 101
e 4 103
e 4 104
e 4 105
e 4 107
e 4 109
e 4 114
e 4 115
e 4 117
e 4 118
e 4 121
e 4 124
e 4 126
e 4 127
e 4 128
e 4 132
e 4 134
e 4 135
e 4 143
e 4 147
e 4 149
e 5 6
e 5 7
e 5 9
e 5 10
e 5 12
e 5 13
e 5 20
e 5 23
e 5 25
e 5 28
e 5 31
e 5 38
e 5 40
e 5 42
e 5 46
e 5 50
e 5 54
e 5 55
e 5 56
e 5 58
e 5 59
e 5 60
e 5 62
e 5 63
e 5 64
e 5 66
e 5 67
e 5 72
e 5 82
e 5 86
e 5 88
e 5 90
e 5 92
e 5 93
e 5 95
e 5 97
e 5 98
e 5 100
e 5 108
e 5 110
e 5 112
e 5 115
e 5 117
e 5 118
e 5 121
e 5 122
e 5 123
e 5 127
e 5 131
e 5 132
e 5 136
e 5 137
e 5 139
e 5 140
e 5 143
e 5 144
e 5 145
e 5 146
e 6 10
e 6 11
e 6 13
e 6 23
e 6 29
e 6 30
e 6 31
e 6 32
e 6 33
e 6 35
e 6 36
e 6 37
e 6 38
e 6 44
e 6 46
e 6 48
e 6 49
e 6 53
e 6 55
e 6 61
e 6 62
e 6 63
e 6 65
e 6 68
e 6 70
e 6 71
e 6 75
e 6 77
e 6 80
e 6 82
e 6 83
e 6 84
e 6 88
e 6 91
e 6 94
e 6 97
e 6 98
e 6 99
e 6 102
e 6 104
e 6 106
e 6 108
e 6 109
e 6 110
e 6 114
e 6 116
e 6 118
e 6 122
e 6 123
e 6 126
e 6 128
e 6 129
e 6 132
e 6 133
e 6 144
e 6 146
e 6 149
e 7 10
e 7 11
e 7 12
e 7 13
e 7 14
e 7 19
e 7 24
e 7 26
e 7 32
e 7 34
e 7 35
e 7 36
e 7 37
e 7 42
e 7 47
e 7 48
e 7 49
e 7 50
e 7 51
e 7 60
e 7 62
e 7 63
e 7 66
e 7 68
e 7 70
e 7 72
e 7 73
e 7 76
e 7 77
e 7 79
e 7 80
e 7 85
e 7 86
e 7 88
e 7 93
e 7 94
e 7 96
e 7 97
e 7 102
e 7 103
e 7 105
e 7 106
e 7 109
e 7 110
e 7 114
e 7 117
e 7 119
e 7 120
e 7 126
e 7 128
e 7 130
e 7 131
e 7 135
e 7 138
e 7 140
e 7 143
e 7 144
e 7 145
e 7 146
e 7 148
e 8 12
e 8 13
e 8 15
e 8 16
e 8 19
e 8 25
e 8 29
e 8 32
e 8 34
e 8 35
e 8 36
e 8 38
e 8 41
e 8 43
e 8 44
e 8 45
e 8 47
e 8 48
e 8 50
e 8 51
e 8 52
e 8 55
e 8 58
e 8 59
e 8 63
e 8 64
e 8 65
e 8 66
e 8 68
e 8 69
e 8 72
e 8 75
e 8 76
e 8 78
e 8 79
e 8 81
e 8 82
e 8 84
e 8 85
e 8 86
e 8 87
e 8 92
e 8 95
e 8 98
e 8 100
e 8 101
e 8 102
e 8 103
e 8 104
e 8 106
e 8 109
e 8 117
e 8 118
e 8 121
e 8 126
e 8 128
e 8 129
e 8 131
e 8 134
e 8 135
e 8 138
e 8 143
e 8 144
e 8 148
e 9 11
e 9 13
e 9 14
e 9 18
e 9 24
e 9 26
e 9 28
e 9 29
e 9 30
e 9 31
e 9 33
e 9 36
e 9 39
e 9 40
e 9 41
e 9 44
e 9 45
e 9 50
e 9 52
e 9 57
e 9 59
e 9 60
e 9 62
e 9 68
e 9 72
e 9 74
e 9 77
e 9 81
e 9 82
e 9 84
e 9 86
e 9 87
e 9 93
e 9 94
e 9 97
e 9 98
e 9 100
e 9 103
e 9 104
e 9 105
e 9 111
e 9 112
e 9 113
e 9 116
e 9 121
e 9 123
e 9 125
e 9 126
e 9 128
e 9 130
e 9 134
e 9 137
e 9 145
e 9 146
e 9 147
e 9 148
e 9 150
e 10 11
e 10 13
e 10 15
e 10 17
e 10 19
e 10 20
e 10 21
e 10 27
e 10 29
e 10 30
e 10 32
e 10 33
e 10 37
e 10 38
e 10 39
e 10 43
e 10 45
e 10 46
e 10 57
e 10 58
e 10 59
e 10 65
e 10 66
e 10 67
e 10 73
e 10 88
e 10 93
e 10 97
e 10 100
e 10 101
e 10 106
e 10 111
e 10 114
e 10 119
e 10 120
e 10 122
e 10 127
e 10 130
e 10 131
e 10 132
e 10 133
e 10 137
e 10 139
e 10 140
e 10 141
e 10 143
e 10 146
e 10 147
e 10 149
e 10 150
e 11 19
e 11 21
e 11 23
e 11 26
e 11 27
e 11 28
e 11 30
e 11 31
e 11 32
e 11 34
e 11 36
e 11 37
e 11 41
e 11 44
e 11 45
e 11 49
e 11 51
e 11 59
e 11 61
e 11 63
e 11 66
e 11 68
e 11 70
e 11 71
e 11 72
e 11 75
e 11 76
e 11 77
e 11 80
e 11 81
e 11 82
e 11 83
e 11 84
e 11 88
e 11 93
e 11 94
e 11 96
e 11 97
e 11 100
e 11 101
e 11 106
e 11 107
e 11 109
e 11 110
e 11 111
e 11 112
e 11 116
e 11 120
e 11 121
e 11 124
e 11 125
e 11 130
e 11 131
e 11 135
e 11 137
e 11 138
e 11 140
e 11 146
e 11 148
e 11 149
e 11 150
e 12 15
e 12 17
e 12 19
e 12 26
e 12 27
e 12 28
e 12 30
e 12 31
e 12 37
e 12 38
e 12 40
e 12 41
e 12 43
e 12 45
e 12 46
e 12 53
e 12 58
e 12 66
e 12 68
e 12 73
e 12 75
e 12 80
e 12 81
e 12 84
e 12 85
e 12 86
e 12 87
e 12 94
e 12 95
e 12 96
e 12 97
e 12 98
e 12 100
e 12 103
e 12 104
e 12 108
e 12 109
e 12 111
e 12 113
e 12 114
e 12 116
e 12 118
e 12 120
e 12 124
e 12 125
e 12 126
e 12 127
e 12 128
e 12 132
e 12 136
e 12 144
e 12 145
e 12 149
e 13 14
e 13 20
e 13 23
e 13 25
e 13 30
e 13 33
e 13 34
e 13 51
e 13 52
e 13 53
e 13 54
e 13 55
e 13 57
e 13 59
e 13 61
e 13 62
e 13 63
e 13 64
e 13 68
e 13 69
e 13 70
e 13 71
e 13 74
e 13 75
e 13 76
e 13 77
e 13 79
e 13 82
e 13 85
e 13 88
e 13 89
e 13 96
e 13 101
e 13 102
e 13 104
e 13 105
e 13 107
e 13 108
e 13 109
e 13 110
e 13 113
e 13 115
e 13 117
e 13 122
e 13 124
e 13 129
e 13 134
e 13 137
e 13 142
e 13 143
e 13 145
e 13 148
e 13 149
e 13 150
e 14 15
e 14 16
e 14 18
e 14 19
e 14 20
e 14 21
e 14 26
e 14 28
e 14 31
e 14 33
e 14 37
e 14 38
e 14 41
e 14 42
e 14 45
e 14 46
e 14 47
e 14 49
e 14 55
e 14 57
e 14 63
e 14 69
e 14 74
e 14 76
e 14 77
e 14 84
e 14 85
e 14 91
e 14 92
e 14 93
e 14 94
e 14 95
e 14 97
e 14 98
e 14 104
e 14 106
e 14 109
e 14 112
e 14 113
e 14 114
e 14 122
e 14 123
e 14 124
e 14 126
e 14 129
e 14 132
e 14 134
e 14 135
e 14 136
e 14 138
e 14 142
e 14 147
e 14 148
e 15 17
e 15 18
e 15 25
e 15 27
e 15 29
e 15 31
e 15 32
e 15 34
e 15 39
e 15 40
e 15 46
e 15 47
e 15 51
e 15 53
e 15 54
e 15 55
e 15 58
e 15 59
e 15 64
e 15 68
e 15 70
e 15 71
e 15 79
e 15 80
e 15 81
e 15 89
e 15 94
e 15 95
e 15 97
e 15 104
e 15 106
e 15 108
e 15 110
e 15 113
e 15 116
e 15 117
e 15 119
e 15 121
e 15 125
e 15 128
e 15 132
e 15 135
e 15 136
e 15 137
e 15 138
e 15 139
e 15 140
e 15 146
e 15 147
e 15 150
e 16 20
e 16 21
e 16 22
e 16 25
e 16 30
e 16 32
e 16 33
e 16 36
e 16 38
e 16 41
e 16 42
e 16 43
e 16 44
e 16 48
e 16 50
e 16 51
e 16 56
e 16 59
e 16 60
e 16 61
e 16 63
e 16 71
e 16 74
e 16 76
e 16 80
e 16 81
e 16 83
e 16 88
e 16 91
e 16 93
e 16 95
e 16 100
e 16 102
e 16 105
e 16 107
e 16 109
e 16 110
e 16 114
e 16 115
e 16 118
e 16 119
e 16 120
e 16 122
e 16 124
e 16 127
e 16 129
e 16 133
e 16 134
e 16 136
e 16 140
e 16 141
e 16 142
e 16 146
e 16 148
e 17 19
e 17 23
e 17 28
e 17 29
e 17 31
e 17 32
e 17 33
e 17 34
e 17 36
e 17 37
e 17 48
e 17 53
e 17 54
e 17 56
e 17 57
e 17 58
e 17 61
e 17 64
e 17 65
e 17 66
e 17 70
e 17 73
e 17 74
e 17 83
e 17 85
e 17 86
e 17 87
e 17 90
e 17 91
e 17 94
e 17 95
e 17 98
e 17 101
e 17 102
e 17 104
e 17 107
e 17 109
e 17 110
e 17 111
e 17 113
e 17 119
e 17 123
e 17 125
e 17 126
e 17 127
e 17 129
e 17 133
e 17 135
e 17 136
e 17 140
e 17 143
e 17 144
e 18 20
e 18 21
e 18 23
e 18 24
e 18 25
e 18 26
e 18 27
e 18 30
e 18 35
e 18 38
e 18 43
e 18 50
e 18 51
e 18 56
e 18 57
e 18 58
e 18 60
e 18 61
e 18 62
e 18 64
e 18 65
e 18 68
e 18 71
e 18 73
e 18 81
e 18 82
e 18 89
e 18 91
e 18 98
e 18 99
e 18 101
e 18 102
e 18 104
e 18 106
e 18 107
e 18 108
e 18 109
e 18 111
e 18 113
e 18 114
e 18 115
e 18 116
e 18 117
e 18 118
e 18 123
e 18 124
e 18 125
e 18 129
e 18 132
e 18 134
e 18 136
e 18 137
e 18 139
e 18 141
e 18 142
e 18 143
e 18 147
e 18 149
e 19 21
e 19 27
e 19 33
e 19 36
e 19 37
e 19 39
e 19 42
e 19 43
e 19 44
e 19 46
e 19 47
e 19 48
e 19 50
e 19 53
e 19 55
e 19 56
e 19 58
e 19 59
e 19 60
e 19 62
e 19 65
e 19 66
e 19 68
e 19 70
e 19 72
e 19 73
e 19 77
e 19 78
e 19 79
e 19 80
e 19 89
e 19 90
e 19 92
e 19 93
e 19 96
e 19 98
e 19 101
e 19 102
e 19 105
e 19 109
e 19 111
e 19 112
e 19 118
e 19 125
e 19 128
e 19 134
e 19 136
e 19 137
e 19 138
e 19 140
e 19 145
e 19 146
e 20 23
e 20 24
e 20 29
e 20 30
e 20 32
e 20 34
e 20 35
e 20 37
e 20 39
e 20 43
e 20 44
e 20 45
e 20 57
e 20 61
e 20 63
e 20 65
e 20 66
e 20 68
e 20 69
e 20 72
e 20 73
e 20 74
e 20 78
e 20 79
e 20 85
e 20 89
e 20 90
e 20 96
e 20 97
e 20 98
e 20 99
e 20 102
e 20 103
e 20 104
e 20 106
e 20 107
e 20 111
e 20 112
e 20 116
e 20 118
e 20 120
e 20 122
e 20 123
e 20 129
e 20 132
e 20 134
e 20 138
e 20 144
e 20 145
e 20 147
e 20 148
e 20 149
e 20 150
e 21 24
e 21 26
e 21 30
e 21 37
e 21 44
e 21 46
e 21 56
e 21 58
e 21 60
e 21 63
e 21 64
e 21 65
e 21 66
e 21 67
e 21 68
e 21 69
e 21 71
e 21 72
e 21 74
e 21 76
e 21 85
e 21 88
e 21 94
e 21 95
e 21 96
e 21 103
e 21 104
e 21 106
e 21 107
e 21 111
e 21 112
e 21 114
e 21 115
e 21 116
e 21 122
e 21 123
e 21 129
e 21 130
e 21 133
e 21 134
e 21 137
e 21 138
e 21 144
e 21 146
e 21 150
e 22 23
e 22 25
e 22 30
e 22 34
e 22 35
e 22 37
e 22 38
e 22 39
e 22 41
e 22 42
e 22 47
e 22 48
e 22 50
e 22 57
e 22 64
e 22 66
e 22 68
e 22 69
e 22 72
e 22 73
e 22 74
e 22 75
e 22 76
e 22 83
e 22 84
e 22 85
e 22 86
e 22 87
e 22 92
e 22 93
e 22 97
e 22 98
e 22 99
e 22 101
e 22 102
e 22 106
e 22 108
e 22 111
e 22 113
e 22 114
e 22 115
e 22 117
e 22 119
e 22 120
e 22 121
e 22 123
e 22 125
e 22 133
e 22 137
e 22 139
e 22 142
e 22 144
e 22 147
e 23 25
e 23 26
e 23 27
e 23 28
e 23 31
e 23 32
e 23 34
e 23 36
e 23 37
e 23 38
e 23 41
e 23 42
e 23 44
e 23 45
e 23 46
e 23 48
e 23 49
e 23 51
e 23 54
e 23 57
e 23 60
e 23 61
e 23 62
e 23 64
e 23 66
e 23 74
e 23 78
e 23 84
e 23 90
e 23 91
e 23 92
e 23 93
e 23 96
e 23 102
e 23 103
e 23 104
e 23 105
e 23 111
e 23 116
e 23 117
e 23 120
e 23 121
e 23 122
e 23 127
e 23 128
e 23 130
e 23 135
e 23 138
e 23 140
e 23 141
e 23 144
e 23 148
e 23 150
e 24 25
e 24 27
e 24 28
e 24 32
e 24 36
e 24 37
e 24 38
e 24 40
e 24 42
e 24 44
e 24 50
e 24 52
e 24 55
e 24 58
e 24 72
e 24 74
e 24 76
e 24 77
e 24 78
e 24 81
e 24 83
e 24 85
e 24 86
e 24 88
e 24 89
e 24 94
e 24 96
e 24 98
e 24 100
e 24 101
e 24 103
e 24 109
e 24 110
e 24 111
e 24 114
e 24 116
e 24 120
e 24 123
e 24 125
e 24 126
e 24 127
e 24 128
e 24 134
e 24 135
e 24 136
e 24 137
e 24 138
e 24 140
e 24 147
e 24 150
e 25 27
e 25 29
e 25 30
e 25 32
e 25 34
e 25 37
e 25 43
e 25 52
e 25 55
e 25 56
e 25 57
e 25 58
e 25 61
e 25 65
e 25 68
e 25 72
e 25 73
e 25 83
e 25 86
e 25 91
e 25 92
e 25 97
e 25 99
e 25 100
e 25 101
e 25 102
e 25 108
e 25 113
e 25 114
e 25 117
e 25 121
e 25 123
e 25 124
e 25 127
e 25 144
e 25 145
e 25 150
e 26 27
e 26 28
e 26 30
e 26 32
e 26 33
e 26 36
e 26 40
e 26 41
e 26 46
e 26 48
e 26 49
e 26 51
e 26 52
e 26 53
e 26 55
e 26 59
e 26 61
e 26 63
e 26 65
e 26 66
e 26 67
e 26 68
e 26 70
e 26 71
e 26 75
e 26 76
e 26 78
e 26 80
e 26 83
e 26 87
e 26 98
e 26 99
e 26 103
e 26 104
e 26 105
e 26 109
e 26 111
e 26 113
e 26 115
e 26 116
e 26 117
e 26 119
e 26 125
e 26 126
e 26 129
e 26 132
e 26 134
e 26 136
e 26 138
e 26 139
e 26 141
e 26 144
e 26 145
e 26 149
e 27 35
e 27 38
e 27 39
e 27 41
e 27 46
e 27 47
e 27 51
e 27 53
e 27 54
e 27 56
e 27 58
e 27 59
e 27 61
e 27 63
e 27 66
e 27 68
e 27 69
e 27 70
e 27 71
e 27 73
e 27 77
e 27 86
e 27 94
e 27 100
e 27 104
e 27 108
e 27 109
e 27 110
e 27 112
e 27 116
e 27 118
e 27 119
e 27 122
e 27 124
e 27 125
e 27 128
e 27 131
e 27 132
e 27 134
e 27 139
e 27 141
e 27 144
e 27 148
e 27 149
e 28 29
e 28 30
e 28 31
e 28 35
e 28 36
e 28 38
e 28 43
e 28 45
e 28 46
e 28 47
e 28 51
e 28 54
e 28 56
e 28 57
e 28 59
e 28 61
e 28 63
e 28 66
e 28 67
e 28 68
e 28 69
e 28 70
e 28 71
e 28 74
e 28 80
e 28 84
e 28 87
e 28 89
e 28 92
e 28 93
e 28 94
e 28 97
e 28 98
e 28 99
e 28 107
e 28 110
e 28 111
e 28 112
e 28 121
e 28 124
e 28 126
e 28 131
e 28 134
e 28 135
e 28 140
e 28 143
e 28 145
e 29 33
e 29 40
e 29 44
e 29 48
e 29 49
e 29 50
e 29 53
e 29 59
e 29 62
e 29 65
e 29 70
e 29 74
e 29 75
e 29 77
e 29 78
e 29 80
e 29 81
e 29 85
e 29 86
e 29 87
e 29 89
e 29 93
e 29 95
e 29 96
e 29 97
e 29 98
e 29 101
e 29 104
e 29 105
e 29 109
e 29 110
e 29 112
e 29 118
e 29 127
e 29 128
e 29 129
e 29 132
e 29 133
e 29 136
e 29 138
e 29 141
e 29 142
e 29 146
e 29 147
e 30 37
e 30 38
e 30 40
e 30 44
e 30 45
e 30 49
e 30 50
e 30 51
e 30 58
e 30 63
e 30 64
e 30 65
e 30 67
e 30 71
e 30 76
e 30 77
e 30 78
e 30 80
e 30 81
e 30 82
e 30 84
e 30 85
e 30 86
e 30 87
e 30 88
e 30 94
e 30 100
e 30 106
e 30 108
e 30 109
e 30 110
e 30 112
e 30 114
e 30 115
e 30 117
e 30 119
e 30 120
e 30 121
e 30 123
e 30 124
e 30 130
e 30 131
e 30 135
e 30 142
e 30 143
e 30 145
e 30 148
e 30 149
e 31 32
e 31 33
e 31 35
e 31 37
e 31 41
e 31 42
e 31 43
e 31 44
e 31 46
e 31 47
e 31 53
e 31 54
e 31 57
e 31 62
e 31 63
e 31 71
e 31 72
e 31 75
e 31 77
e 31 80
e 31 81
e 31 83
e 31 85
e 31 89
e 31 91
e 31 95
e 31 97
e 31 100
e 31 103
e 31 104
e 31 105
e 31 110
e 31 115
e 31 118
e 31 119
e 31 123
e 31 124
e 31 125
e 31 127
e 31 128
e 31 129
e 31 134
e 31 138
e 31 139
e 31 140
e 31 143
e 31 144
e 31 147
e 31 148
e 31 150
e 32 33
e 32 36
e 32 38
e 32 41
e 32 42
e 32 43
e 32 45
e 32 46
e 32 49
e 32 54
e 32 58
e 32 62
e 32 63
e 32 73
e 32 77
e 32 80
e 32 83
e 32 88
e 32 89
e 32 93
e 32 94
e 32 95
e 32 100
e 32 105
e 32 106
e 32 107
e 32 111
e 32 114
e 32 117
e 32 118
e 32 119
e 32 120
e 32 121
e 32 122
e 32 124
e 32 127
e 32 128
e 32 130
e 32 136
e 32 139
e 32 140
e 32 145
e 32 149
e 32 150
e 33 34
e 33 36
e 33 38
e 33 43
e 33 44
e 33 45
e 33 52
e 33 53
e 33 55
e 33 58
e 33 59
e 33 62
e 33 63
e 33 64
e 33 67
e 33 70
e 33 76
e 33 80
e 33 82
e 33 84
e 33 85
e 33 87
e 33 88
e 33 90
e 33 94
e 33 95
e 33 97
e 33 99
e 33 103
e 33 104
e 33 105
e 33 107
e 33 108
e 33 109
e 33 110
e 33 111
e 33 112
e 33 115
e 33 116
e 33 119
e 33 123
e 33 126
e 33 135
e 33 139
e 33 140
e 33 148
e 34 36
e 34 39
e 34 40
e 34 41
e 34 43
e 34 44
e 34 45
e 34 49
e 34 50
e 34 51
e 34 52
e 34 53
e 34 54
e 34 55
e 34 58
e 34 59
e 34 60
e 34 61
e 34 62
e 34 64
e 34 66
e 34 67
e 34 68
e 34 73
e 34 74
e 34 76
e 34 77
e 34 78
e 34 81
e 34 82
e 34 83
e 34 85
e 34 87
e 34 89
e 34 90
e 34 91
e 34 92
e 34 94
e 34 95
e 34 98
e 34 100
e 34 104
e 34 107
e 34 111
e 34 112
e 34 116
e 34 121
e 34 122
e 34 123
e 34 124
e 34 125
e 34 129
e 34 130
e 34 132
e 34 133
e 34 135
e 34 146
e 34 148
e 35 41
e 35 44
e 35 45
e 35 47
e 35 52
e 35 53
e 35 55
e 35 56
e 35 57
e 35 58
e 35 59
e 35 60
e 35 61
e 35 62
e 35 64
e 35 69
e 35 71
e 35 72
e 35 75
e 35 76
e 35 81
e 35 82
e 35 85
e 35 87
e 35 90
e 35 92
e 35 93
e 35 94
e 35 101
e 35 102
e 35 103
e 35 105
e 35 108
e 35 111
e 35 122
e 35 123
e 35 124
e 35 125
e 35 129
e 35 130
e 35 131
e 35 132
e 35 134
e 35 135
e 35 136
e 35 137
e 35 139
e 35 143
e 35 144
e 35 145
e 35 147
e 35 148
e 36 40
e 36 41
e 36 42
e 36 43
e 36 46
e 36 53
e 36 63
e 36 66
e 36 69
e 36 70
e 36 71
e 36 74
e 36 77
e 36 80
e 36 81
e 36 82
e 36 83
e 36 85
e 36 87
e 36 89
e 36 90
e 36 93
e 36 95
e 36 96
e 36 97
e 36 101
e 36 102
e 36 103
e 36 105
e 36 106
e 36 108
e 36 109
e 36 112
e 36 113
e 36 114
e 36 115
e 36 118
e 36 121
e 36 122
e 36 126
e 36 127
e 36 130
e 36 132
e 36 134
e 36 135
e 36 136
e 36 137
e 36 138
e 36 140
e 36 141
e 36 143
e 36 145
e 36 148
e 36 149
e 36 150
e 37 38
e 37 41
e 37 42
e 37 44
e 37 46
e 37 47
e 37 48
e 37 52
e 37 53
e 37 56
e 37 58
e 37 62
e 37 63
e 37 66
e 37 67
e 37 71
e 37 78
e 37 83
e 37 85
e 37 95
e 37 98
e 37 99
e 37 100
e 37 101
e 37 103
e 37 104
e 37 107
e 37 111
e 37 113
e 37 114
e 37 115
e 37 116
e 37 117
e 37 118
e 37 119
e 37 120
e 37 123
e 37 124
e 37 125
e 37 126
e 37 129
e 37 130
e 37 131
e 37 132
e 37 133
e 37 134
e 37 136
e 37 140
e 37 141
e 37 142
e 37 143
e 37 145
e 37 148
e 37 150
e 38 39
e 38 41
e 38 44
e 38 46
e 38 50
e 38 51
e 38 53
e 38 54
e 38 55
e 38 56
e 38 59
e 38 61
e 38 62
e 38 63
e 38 65
e 38 66
e 38 67
e 38 68
e 38 70
e 38 73
e 38 78
e 38 81
e 38 82
e 38 85
e 38 86
e 38 88
e 38 89
e 38 90
e 38 96
e 38 98
e 38 100
e 38 102
e 38 108
e 38 112
e 38 113
e 38 117
e 38 118
e 38 121
e 38 124
e 38 125
e 38 126
e 38 127
e 38 129
e 38 132
e 38 135
e 38 136
e 38 137
e 38 138
e 38 140
e 38 141
e 38 142
e 38 143
e 38 145
e 38 147
e 38 149
e 39 42
e 39 43
e 39 45
e 39 46
e 39 47
e 39 58
e 39 59
e 39 60
e 39 61
e 39 62
e 39 63
e 39 65
e 39 66
e 39 68
e 39 71
e 39 73
e 39 75
e 39 77
e 39 82
e 39 83
e 39 90
e 39 91
e 39 93
e 39 96
e 39 97
e 39 99
e 39 100
e 39 101
e 39 102
e 39 105
e 39 106
e 39 107
e 39 108
e 39 110
e 39 111
e 39 113
e 39 116
e 39 117
e 39 121
e 39 124
e 39 125
e 39 126
e 39 127
e 39 130
e 39 131
e 39 132
e 39 133
e 39 136
e 39 137
e 39 138
e 39 139
e 39 140
e 39 141
e 39 142
e 39 147
e 40 41
e 40 43
e 40 48
e 40 51
e 40 52
e 40 55
e 40 56
e 40 58
e 40 63
e 40 64
e 40 65
e 40 66
e 40 67
e 40 71
e 40 72
e 40 81
e 40 82
e 40 86
e 40 92
e 40 93
e 40 98
e 40 100
e 40 105
e 40 107
e 40 112
e 40 114
e 40 116
e 40 118
e 40 119
e 40 121
e 40 122
e 40 124
e 40 125
e 40 126
e 40 127
e 40 131
e 40 133
e 40 136
e 40 138
e 40 139
e 40 140
e 40 144
e 40 145
e 40 146
e 40 147
e 41 42
e 41 45
e 41 46
e 41 48
e 41 51
e 41 54
e 41 55
e 41 56
e 41 61
e 41 65
e 41 67
e 41 70
e 41 71
e 41 74
e 41 76
e 41 79
e 41 80
e 41 84
e 41 87
e 41 89
e 41 97
e 41 103
e 41 106
e 41 107
e 41 110
e 41 113
e 41 114
e 41 116
e 41 119
e 41 121
e 41 122
e 41 125
e 41 126
e 41 134
e 41 136
e 41 138
e 41 139
e 41 140
e 41 150
e 42 43
e 42 48
e 42 49
e 42 50
e 42 51
e 42 55
e 42 59
e 42 62
e 42 63
e 42 65
e 42 67
e 42 76
e 42 77
e 42 78
e 42 81
e 42 83
e 42 86
e 42 87
e 42 89
e 42 90
e 42 91
e 42 92
e 42 95
e 42 96
e 42 99
e 42 100
e 42 101
e 42 103
e 42 104
e 42 113
e 42 114
e 42 118
e 42 125
e 42 126
e 42 130
e 42 131
e 42 134
e 42 135
e 42 136
e 42 138
e 42 140
e 42 141
e 42 143
e 42 147
e 43 45
e 43 46
e 43 47
e 43 50
e 43 57
e 43 60
e 43 61
e 43 64
e 43 65
e 43 67
e 43 68
e 43 69
e 43 70
e 43 71
e 43 75
e 43 79
e 43 80
e 43 83
e 43 86
e 43 87
e 43 88
e 43 90
e 43 95
e 43 97
e 43 99
e 43 100
e 43 105
e 43 107
e 43 108
e 43 115
e 43 116
e 43 118
e 43 120
e 43 123
e 43 124
e 43 127
e 43 129
e 43 130
e 43 134
e 43 135
e 43 138
e 43 139
e 43 143
e 43 145
e 43 148
e 43 150
e 44 45
e 44 49
e 44 50
e 44 55
e 44 57
e 44 58
e 44 60
e 44 63
e 44 66
e 44 70
e 44 71
e 44 73
e 44 74
e 44 76
e 44 80
e 44 82
e 44 85
e 44 90
e 44 91
e 44 94
e 44 97
e 44 99
e 44 101
e 44 102
e 44 103
e 44 105
e 44 107
e 44 108
e 44 111
e 44 113
e 44 115
e 44 117
e 44 120
e 44 121
e 44 122
e 44 123
e 44 125
e 44 127
e 44 129
e 44 134
e 44 135
e 44 137
e 44 140
e 44 141
e 44 145
e 44 146
e 44 149
e 45 47
e 45 49
e 45 50
e 45 51
e 45 52
e 45 54
e 45 55
e 45 56
e 45 57
e 45 58
e 45 61
e 45 62
e 45 65
e 45 68
e 45 69
e 45 70
e 45 71
e 45 72
e 45 74
e 45 76
e 45 77
e 45 81
e 45 83
e 45 90
e 45 91
e 45 94
e 45 96
e 45 97
e 45 99
e 45 100
e 45 102
e 45 103
e 45 105
e 45 108
e 45 110
e 45 113
e 45 114
e 45 116
e 45 118
e 45 126
e 45 127
e 45 129
e 45 130
e 45 132
e 45 134
e 45 138
e 45 140
e 45 141
e 45 142
e 45 144
e 45 145
e 45 147
e 45 149
e 46 48
e 46 49
e 46 53
e 46 57
e 46 62
e 46 64
e 46 65
e 46 68
e 46 69
e 46 70
e 46 72
e 46 73
e 46 76
e 46 78
e 46 80
e 46 82
e 46 84
e 46 86
e 46 88
e 46 89
e 46 90
e 46 93
e 46 95
e 46 98
e 46 100
e 46 101
e 46 102
e 46 103
e 46 104
e 46 115
e 46 116
e 46 119
e 46 124
e 46 125
e 46 129
e 46 131
e 46 133
e 46 134
e 46 135
e 46 137
e 46 138
e 46 139
e 46 144
e 46 145
e 46 148
e 47 48
e 47 50
e 47 51
e 47 53
e 47 56
e 47 57
e 47 60
e 47 61
e 47 62
e 47 63
e 47 70
e 47 71
e 47 72
e 47 73
e 47 74
e 47 75
e 47 77
e 47 84
e 47 86
e 47 89
e 47 90
e 47 91
e 47 99
e 47 107
e 47 108
e 47 111
e 47 112
e 47 113
e 47 117
e 47 118
e 47 120
e 47 122
e 47 126
e 47 128
e 47 131
e 47 132
e 47 135
e 47 137
e 47 138
e 47 142
e 47 143
e 48 50
e 48 52
e 48 53
e 48 55
e 48 60
e 48 61
e 48 65
e 48 66
e 48 67
e 48 69
e 48 71
e 48 73
e 48 76
e 48 78
e 48 80
e 48 81
e 48 84
e 48 87
e 48 89
e 48 90
e 48 92
e 48 93
e 48 95
e 48 104
e 48 105
e 48 113
e 48 114
e 48 117
e 48 119
e 48 120
e 48 121
e 48 125
e 48 126
e 48 128
e 48 129
e 48 130
e 48 136
e 48 139
e 48 143
e 48 150
e 49 50
e 49 53
e 49 59
e 49 61
e 49 62
e 49 64
e 49 65
e 49 66
e 49 67
e 49 70
e 49 72
e 49 73
e 49 74
e 49 79
e 49 81
e 49 82
e 49 84
e 49 85
e 49 87
e 49 89
e 49 90
e 49 95
e 49 103
e 49 106
e 49 110
e 49 111
e 49 113
e 49 116
e 49 117
e 49 133
e 49 134
e 49 138
e 49 139
e 49 143
e 49 144
e 49 149
e 50 51
e 50 53
e 50 55
e 50 56
e 50 58
e 50 60
e 50 65
e 50 68
e 50 69
e 50 70
e 50 73
e 50 74
e 50 78
e 50 81
e 50 83
e 50 85
e 50 86
e 50 88
e 50 91
e 50 93
e 50 97
e 50 99
e 50 100
e 50 106
e 50 107
e 50 110
e 50 113
e 50 116
e 50 117
e 50 118
e 50 120
e 50 122
e 50 123
e 50 125
e 50 129
e 50 130
e 50 131
e 50 133
e 50 136
e 50 137
e 50 141
e 50 142
e 50 143
e 51 53
e 51 59
e 51 63
e 51 64
e 51 65
e 51 68
e 51 71
e 51 75
e 51 77
e 51 79
e 51 80
e 51 83
e 51 88
e 51 91
e 51 93
e 51 97
e 51 99
e 51 103
e 51 106
e 51 108
e 51 109
e 51 116
e 51 117
e 51 120
e 51 121
e 51 131
e 51 132
e 51 135
e 51 137
e 51 138
e 51 139
e 51 143
e 51 145
e 51 147
e 51 148
e 51 150
e 52 57
e 52 61
e 52 66
e 52 70
e 52 71
e 52 74
e 52 76
e 52 79
e 52 91
e 52 97
e 52 98
e 52 99
e 52 100
e 52 107
e 52 108
e 52 113
e 52 116
e 52 117
e 52 118
e 52 121
e 52 122
e 52 130
e 52 132
e 52 138
e 52 141
e 52 142
e 52 143
e 52 146
e 52 147
e 52 148
e 52 149
e 52 150
e 53 55
e 53 56
e 53 57
e 53 58
e 53 61
e 53 63
e 53 68
e 53 71
e 53 74
e 53 84
e 53 85
e 53 87
e 53 90
e 53 92
e 53 96
e 53 97
e 53 98
e 53 103
e 53 106
e 53 110
e 53 112
e 53 114
e 53 117
e 53 118
e 53 124
e 53 126
e 53 129
e 53 130
e 53 131
e 53 132
e 53 133
e 53 135
e 53 136
e 53 144
e 54 55
e 54 56
e 54 60
e 54 61
e 54 62
e 54 63
e 54 64
e 54 68
e 54 70
e 54 72
e 54 73
e 54 74
e 54 75
e 54 77
e 54 78
e 54 80
e 54 82
e 54 86
e 54 93
e 54 95
e 54 102
e 54 103
e 54 104
e 54 106
e 54 110
e 54 113
e 54 114
e 54 115
e 54 123
e 54 124
e 54 126
e 54 130
e 54 132
e 54 136
e 54 141
e 54 144
e 54 145
e 54 147
e 54 149
e 55 56
e 55 65
e 55 66
e 55 67
e 55 68
e 55 69
e 55 70
e 55 74
e 55 75
e 55 77
e 55 78
e 55 87
e 55 91
e 55 92
e 55 95
e 55 101
e 55 103
e 55 105
e 55 106
e 55 111
e 55 112
e 55 113
e 55 115
e 55 116
e 55 117
e 55 120
e 55 123
e 55 124
e 55 129
e 55 130
e 55 138
e 55 140
e 55 141
e 55 144
e 55 146
e 55 148
e 56 58
e 56 59
e 56 64
e 56 66
e 56 67
e 56 69
e 56 71
e 56 72
e 56 73
e 56 79
e 56 80
e 56 87
e 56 88
e 56 91
e 56 92
e 56 95
e 56 97
e 56 102
e 56 103
e 56 107
e 56 110
e 56 112
e 56 116
e 56 117
e 56 119
e 56 120
e 56 124
e 56 125
e 56 127
e 56 128
e 56 129
e 56 130
e 56 131
e 56 132
e 56 138
e 56 142
e 56 143
e 56 147
e 56 150
e 57 59
e 57 60
e 57 65
e 57 67
e 57 68
e 57 78
e 57 79
e 57 81
e 57 83
e 57 84
e 57 90
e 57 91
e 57 95
e 57 97
e 57 103
e 57 105
e 57 106
e 57 111
e 57 115
e 57 117
e 57 119
e 57 121
e 57 123
e 57 126
e 57 132
e 57 140
e 57 141
e 57 143
e 57 148
e 57 149
e 57 150
e 58 59
e 58 63
e 58 66
e 58 67
e 58 73
e 58 75
e 58 76
e 58 77
e 58 79
e 58 80
e 58 81
e 58 82
e 58 84
e 58 87
e 58 90
e 58 93
e 58 98
e 58 100
e 58 104
e 58 106
e 58 107
e 58 112
e 58 116
e 58 120
e 58 121
e 58 123
e 58 124
e 58 127
e 58 128
e 58 129
e 58 132
e 58 133
e 58 140
e 58 147
e 59 60
e 59 63
e 59 66
e 59 67
e 59 68
e 59 69
e 59 74
e 59 78
e 59 81
e 59 86
e 59 87
e 59 88
e 59 89
e 59 91
e 59 92
e 59 93
e 59 103
e 59 104
e 59 107
e 59 108
e 59 111
e 59 114
e 59 116
e 59 117
e 59 121
e 59 128
e 59 130
e 59 131
e 59 133
e 59 139
e 59 145
e 59 150
e 60 63
e 60 64
e 60 67
e 60 69
e 60 70
e 60 74
e 60 75
e 60 77
e 60 78
e 60 81
e 60 83
e 60 87
e 60 88
e 60 94
e 60 95
e 60 96
e 60 100
e 60 104
e 60 106
e 60 110
e 60 113
e 60 114
e 60 115
e 60 117
e 60 120
e 60 134
e 60 136
e 60 143
e 60 146
e 60 147
e 60 148
e 61 62
e 61 66
e 61 67
e 61 71
e 61 72
e 61 73
e 61 74
e 61 75
e 61 76
e 61 77
e 61 78
e 61 80
e 61 82
e 61 84
e 61 85
e 61 89
e 61 90
e 61 91
e 61 94
e 61 95
e 61 100
e 61 101
e 61 102
e 61 104
e 61 105
e 61 108
e 61 109
e 61 110
e 61 119
e 61 122
e 61 123
e 61 125
e 61 128
e 61 129
e 61 133
e 61 136
e 61 139
e 61 142
e 61 144
e 61 145
e 61 146
e 61 148
e 62 65
e 62 70
e 62 72
e 62 76
e 62 78
e 62 80
e 62 83
e 62 85
e 62 86
e 62 87
e 62 88
e 62 89
e 62 94
e 62 95
e 62 97
e 62 102
e 62 110
e 62 112
e 62 113
e 62 115
e 62 117
e 62 118
e 62 119
e 62 123
e 62 124
e 62 126
e 62 127
e 62 128
e 62 130
e 62 131
e 62 135
e 62 136
e 62 137
e 62 141
e 62 142
e 62 146
e 62 148
e 62 149
e 62 150
e 63 65
e 63 67
e 63 68
e 63 69
e 63 73
e 63 74
e 63 82
e 63 83
e 63 85
e 63 86
e 63 87
e 63 90
e 63 91
e 63 96
e 63 97
e 63 102
e 63 103
e 63 104
e 63 105
e 63 106
e 63 109
e 63 110
e 63 111
e 63 113
e 63 115
e 63 117
e 63 118
e 63 124
e 63 125
e 63 126
e 63 127
e 63 130
e 63 132
e 63 134
e 63 135
e 63 138
e 63 139
e 63 140
e 63 141
e 63 142
e 63 143
e 63 145
e 63 147
e 63 148
e 64 65
e 64 66
e 64 68
e 64 72
e 64 73
e 64 75
e 64 76
e 64 78
e 64 79
e 64 81
e 64 87
e 64 88
e 64 90
e 64 92
e 64 94
e 64 96
e 64 97
e 64 101
e 64 102
e 64 107
e 64 108
e 64 111
e 64 113
e 64 117
e 64 118
e 64 119
e 64 120
e 64 123
e 64 124
e 64 126
e 64 127
e 64 128
e 64 130
e 64 133
e 64 143
e 64 145
e 64 147
e 65 66
e 65 72
e 65 78
e 65 82
e 65 83
e 65 85
e 65 87
e 65 88
e 65 90
e 65 93
e 65 98
e 65 100
e 65 104
e 65 106
e 65 110
e 65 112
e 65 115
e 65 117
e 65 122
e 65 124
e 65 125
e 65 129
e 65 133
e 65 135
e 65 143
e 65 147
e 65 149
e 65 150
e 66 73
e 66 74
e 66 76
e 66 79
e 66 80
e 66 81
e 66 83
e 66 86
e 66 87
e 66 88
e 66 93
e 66 94
e 66 95
e 66 97
e 66 104
e 66 106
e 66 107
e 66 108
e 66 110
e 66 111
e 66 112
e 66 113
e 66 115
e 66 116
e 66 117
e 66 120
e 66 121
e 66 126
e 66 127
e 66 128
e 66 129
e 66 132
e 66 143
e 66 145
e 66 148
e 66 150
e 67 70
e 67 71
e 67 74
e 67 80
e 67 81
e 67 83
e 67 87
e 67 89
e 67 90
e 67 91
e 67 92
e 67 94
e 67 96
e 67 102
e 67 103
e 67 105
e 67 106
e 67 109
e 67 111
e 67 112
e 67 115
e 67 123
e 67 129
e 67 131
e 67 134
e 67 136
e 67 138
e 67 139
e 67 140
e 67 143
e 67 145
e 67 148
e 67 149
e 68 69
e 68 74
e 68 78
e 68 79
e 68 81
e 68 94
e 68 95
e 68 96
e 68 97
e 68 100
e 68 102
e 68 106
e 68 107
e 68 111
e 68 115
e 68 116
e 68 121
e 68 122
e 68 127
e 68 132
e 68 133
e 68 135
e 68 136
e 68 137
e 68 139
e 68 144
e 68 145
e 68 146
e 68 149
e 68 150
e 69 71
e 69 73
e 69 75
e 69 76
e 69 77
e 69 80
e 69 81
e 69 82
e 69 83
e 69 88
e 69 91
e 69 93
e 69 94
e 69 100
e 69 109
e 69 112
e 69 113
e 69 114
e 69 115
e 69 116
e 69 117
e 69 118
e 69 119
e 69 121
e 69 126
e 69 127
e 69 128
e 69 131
e 69 134
e 69 137
e 69 139
e 69 142
e 69 143
e 69 145
e 69 146
e 70 73
e 70 78
e 70 81
e 70 84
e 70 85
e 70 86
e 70 87
e 70 89
e 70 93
e 70 94
e 70 95
e 70 103
e 70 104
e 70 107
e 70 108
e 70 112
e 70 113
e 70 118
e 70 119
e 70 123
e 70 126
e 70 127
e 70 128
e 70 130
e 70 132
e 70 137
e 70 140
e 70 141
e 70 142
e 70 143
e 70 144
e 70 145
e 70 148
e 70 150
e 71 72
e 71 73
e 71 74
e 71 75
e 71 77
e 71 78
e 71 80
e 71 82
e 71 86
e 71 88
e 71 89
e 71 90
e 71 94
e 71 96
e 71 101
e 71 103
e 71 104
e 71 106
e 71 107
e 71 112
e 71 113
e 71 116
e 71 118
e 71 121
e 71 122
e 71 123
e 71 124
e 71 125
e 71 126
e 71 127
e 71 130
e 71 131
e 71 136
e 71 137
e 71 138
e 71 139
e 71 142
e 71 143
e 71 144
e 71 145
e 71 146
e 72 74
e 72 76
e 72 77
e 72 80
e 72 82
e 72 85
e 72 87
e 72 91
e 72 95
e 72 97
e 72 98
e 72 112
e 72 114
e 72 116
e 72 118
e 72 119
e 72 121
e 72 123
e 72 125
e 72 127
e 72 128
e 72 132
e 72 133
e 72 139
e 72 142
e 72 143
e 72 144
e 72 149
e 73 75
e 73 80
e 73 81
e 73 82
e 73 90
e 73 91
e 73 94
e 73 97
e 73 98
e 73 103
e 73 109
e 73 111
e 73 112
e 73 113
e 73 124
e 73 126
e 73 127
e 73 128
e 73 129
e 73 130
e 73 131
e 73 133
e 73 138
e 73 139
e 73 142
e 73 143
e 73 145
e 73 147
e 73 148
e 74 75
e 74 78
e 74 79
e 74 80
e 74 86
e 74 88
e 74 90
e 74 91
e 74 92
e 74 95
e 74 96
e 74 98
e 74 99
e 74 102
e 74 108
e 74 109
e 74 110
e 74 111
e 74 116
e 74 120
e 74 121
e 74 122
e 74 123
e 74 124
e 74 127
e 74 129
e 74 130
e 74 132
e 74 136
e 74 138
e 74 140
e 74 141
e 74 149
e 74 150
e 75 76
e 75 78
e 75 79
e 75 82
e 75 83
e 75 85
e 75 90
e 75 92
e 75 93
e 75 94
e 75 96
e 75 100
e 75 106
e 75 111
e 75 112
e 75 113
e 75 116
e 75 120
e 75 121
e 75 123
e 75 124
e 75 127
e 75 128
e 75 132
e 75 133
e 75 135
e 75 137
e 75 139
e 75 140
e 75 142
e 75 145
e 75 149
e 75 150
e 76 78
e 76 79
e 76 80
e 76 81
e 76 85
e 76 87
e 76 88
e 76 89
e 76 90
e 76 93
e 76 98
e 76 101
e 76 107
e 76 111
e 76 118
e 76 127
e 76 128
e 76 131
e 76 133
e 76 134
e 76 136
e 76 138
e 76 140
e 76 143
e 77 80
e 77 82
e 77 86
e 77 94
e 77 96
e 77 97
e 77 101
e 77 102
e 77 104
e 77 106
e 77 107
e 77 108
e 77 110
e 77 114
e 77 115
e 77 116
e 77 119
e 77 122
e 77 123
e 77 125
e 77 126
e 77 128
e 77 129
e 77 132
e 77 136
e 77 137
e 77 140
e 77 141
e 77 142
e 77 145
e 77 149
e 78 79
e 78 84
e 78 85
e 78 86
e 78 87
e 78 101
e 78 104
e 78 105
e 78 109
e 78 110
e 78 111
e 78 112
e 78 116
e 78 117
e 78 118
e 78 120
e 78 125
e 78 127
e 78 129
e 78 131
e 78 132
e 78 137
e 78 142
e 78 145
e 78 149
e 79 88
e 79 89
e 79 91
e 79 93
e 79 96
e 79 100
e 79 101
e 79 106
e 79 107
e 79 111
e 79 113
e 79 114
e 79 117
e 79 118
e 79 119
e 79 121
e 79 122
e 79 123
e 79 125
e 79 130
e 79 131
e 79 139
e 79 141
e 79 147
e 79 149
e 79 150
e 80 81
e 80 83
e 80 85
e 80 88
e 80 92
e 80 94
e 80 95
e 80 97
e 80 98
e 80 99
e 80 100
e 80 101
e 80 103
e 80 107
e 80 108
e 80 109
e 80 110
e 80 112
e 80 116
e 80 117
e 80 118
e 80 119
e 80 120
e 80 121
e 80 122
e 80 123
e 80 124
e 80 125
e 80 127
e 80 130
e 80 133
e 80 135
e 80 136
e 80 137
e 80 138
e 80 140
e 80 141
e 80 144
e 80 147
e 80 148
e 80 150
e 81 82
e 81 87
e 81 90
e 81 93
e 81 94
e 81 96
e 81 99
e 81 100
e 81 101
e 81 106
e 81 114
e 81 115
e 81 116
e 81 122
e 81 123
e 81 124
e 81 125
e 81 127
e 81 129
e 81 130
e 81 132
e 81 135
e 81 137
e 81 138
e 81 139
e 81 140
e 81 144
e 81 145
e 82 83
e 82 87
e 82 89
e 82 94
e 82 96
e 82 101
e 82 105
e 82 110
e 82 111
e 82 112
e 82 118
e 82 120
e 82 122
e 82 125
e 82 127
e 82 128
e 82 131
e 82 140
e 82 144
e 82 145
e 82 146
e 82 149
e 82 150
e 83 84
e 83 85
e 83 86
e 83 87
e 83 88
e 83 89
e 83 92
e 83 94
e 83 99
e 83 101
e 83 102
e 83 103
e 83 104
e 83 106
e 83 107
e 83 113
e 83 115
e 83 116
e 83 120
e 83 123
e 83 125
e 83 127
e 83 128
e 83 140
e 83 142
e 83 143
e 83 144
e 84 88
e 84 96
e 84 99
e 84 100
e 84 103
e 84 108
e 84 111
e 84 115
e 84 116
e 84 130
e 84 133
e 84 141
e 84 145
e 84 146
e 84 147
e 84 148
e 84 150
e 85 87
e 85 88
e 85 89
e 85 90
e 85 91
e 85 93
e 85 98
e 85 99
e 85 104
e 85 108
e 85 109
e 85 114
e 85 119
e 85 120
e 85 123
e 85 125
e 85 128
e 85 129
e 85 132
e 85 133
e 85 134
e 85 137
e 85 142
e 85 145
e 85 147
e 85 148
e 85 149
e 86 88
e 86 89
e 86 90
e 86 91
e 86 98
e 86 99
e 86 100
e 86 102
e 86 103
e 86 104
e 86 107
e 86 108
e 86 113
e 86 114
e 86 115
e 86 117
e 86 120
e 86 132
e 86 134
e 86 139
e 86 143
e 86 144
e 86 147
e 86 148
e 87 91
e 87 93
e 87 96
e 87 97
e 87 99
e 87 102
e 87 107
e 87 111
e 87 112
e 87 116
e 87 117
e 87 118
e 87 119
e 87 122
e 87 123
e 87 124
e 87 127
e 87 128
e 87 129
e 87 130
e 87 132
e 87 133
e 87 135
e 87 136
e 87 138
e 87 142
e 87 144
e 87 145
e 88 89
e 88 91
e 88 92
e 88 99
e 88 102
e 88 106
e 88 112
e 88 113
e 88 115
e 88 119
e 88 125
e 88 126
e 88 132
e 88 133
e 88 135
e 88 139
e 88 143
e 88 148
e 89 91
e 89 93
e 89 101
e 89 102
e 89 104
e 89 106
e 89 107
e 89 111
e 89 118
e 89 119
e 89 122
e 89 125
e 89 127
e 89 129
e 89 130
e 89 131
e 89 136
e 89 137
e 89 139
e 89 144
e 89 145
e 89 146
e 89 150
e 90 91
e 90 96
e 90 98
e 90 100
e 90 103
e 90 104
e 90 106
e 90 115
e 90 117
e 90 119
e 90 123
e 90 125
e 90 133
e 90 138
e 90 140
e 90 141
e 90 143
e 90 146
e 90 148
e 91 92
e 91 93
e 91 97
e 91 107
e 91 108
e 91 109
e 91 116
e 91 118
e 91 122
e 91 125
e 91 129
e 91 130
e 91 132
e 91 136
e 91 137
e 91 138
e 91 140
e 91 143
e 91 144
e 91 147
e 92 96
e 92 101
e 92 106
e 92 109
e 92 112
e 92 114
e 92 118
e 92 120
e 92 121
e 92 124
e 92 129
e 92 130
e 92 132
e 92 133
e 92 135
e 92 139
e 92 140
e 92 141
e 92 143
e 92 145
e 92 148
e 92 149
e 93 96
e 93 98
e 93 104
e 93 106
e 93 111
e 93 113
e 93 115
e 93 121
e 93 125
e 93 129
e 93 130
e 93 131
e 93 133
e 93 136
e 93 137
e 93 144
e 93 146
e 93 148
e 93 150
e 94 96
e 94 97
e 94 98
e 94 100
e 94 103
e 94 105
e 94 106
e 94 107
e 94 108
e 94 114
e 94 115
e 94 120
e 94 128
e 94 134
e 94 136
e 94 139
e 94 143
e 94 145
e 94 146
e 94 148
e 94 150
e 95 97
e 95 98
e 95 101
e 95 102
e 95 105
e 95 109
e 95 110
e 95 114
e 95 116
e 95 120
e 95 124
e 95 125
e 95 129
e 95 130
e 95 133
e 95 138
e 95 139
e 95 140
e 95 143
e 95 144
e 95 145
e 95 146
e 95 149
e 96 97
e 96 101
e 96 102
e 96 103
e 96 106
e 96 108
e 96 110
e 96 112
e 96 115
e 96 116
e 96 119
e 96 121
e 96 122
e 96 124
e 96 125
e 96 128
e 96 129
e 96 132
e 96 139
e 96 143
e 96 146
e 96 148
e 96 149
e 96 150
e 97 98
e 97 101
e 97 102
e 97 106
e 97 107
e 97 111
e 97 112
e 97 115
e 97 117
e 97 118
e 97 121
e 97 123
e 97 125
e 97 126
e 97 129
e 97 131
e 97 135
e 97 138
e 97 139
e 97 140
e 97 141
e 97 142
e 97 144
e 97 148
e 97 149
e 97 150
e 98 99
e 98 101
e 98 103
e 98 104
e 98 105
e 98 109
e 98 111
e 98 118
e 98 119
e 98 121
e 98 124
e 98 125
e 98 127
e 98 137
e 98 138
e 98 140
e 98 142
e 98 144
e 98 145
e 98 146
e 98 149
e 98 150
e 99 101
e 99 105
e 99 108
e 99 109
e 99 110
e 99 111
e 99 112
e 99 113
e 99 114
e 99 115
e 99 117
e 99 121
e 99 123
e 99 124
e 99 125
e 99 126
e 99 127
e 99 136
e 99 137
e 99 150
e 100 101
e 100 107
e 100 113
e 100 116
e 100 119
e 100 123
e 100 124
e 100 125
e 100 133
e 100 135
e 100 137
e 100 138
e 100 139
e 100 141
e 100 142
e 100 143
e 100 144
e 100 145
e 100 147
e 100 149
e 101 102
e 101 104
e 101 107
e 101 111
e 101 117
e 101 120
e 101 121
e 101 125
e 101 127
e 101 130
e 101 134
e 101 137
e 101 140
e 101 141
e 101 144
e 101 146
e 101 147
e 101 149
e 101 150
e 102 105
e 102 109
e 102 110
e 102 111
e 102 112
e 102 113
e 102 114
e 102 119
e 102 120
e 102 121
e 102 124
e 102 125
e 102 130
e 102 135
e 102 137
e 102 142
e 102 143
e 102 145
e 102 148
e 102 149
e 102 150
e 103 104
e 103 105
e 103 106
e 103 109
e 103 111
e 103 114
e 103 116
e 103 118
e 103 123
e 103 124
e 103 125
e 103 128
e 103 133
e 103 134
e 103 139
e 103 140
e 103 141
e 103 142
e 103 143
e 103 145
e 104 110
e 104 117
e 104 118
e 104 120
e 104 121
e 104 125
e 104 127
e 104 128
e 104 133
e 104 134
e 104 136
e 104 139
e 104 144
e 104 145
e 104 148
e 104 150
e 105 107
e 105 109
e 105 111
e 105 112
e 105 117
e 105 119
e 105 120
e 105 121
e 105 124
e 105 126
e 105 127
e 105 128
e 105 129
e 105 131
e 105 132
e 105 133
e 105 134
e 105 137
e 105 139
e 105 140
e 105 143
e 105 145
e 105 149
e 105 150
e 106 107
e 106 108
e 106 109
e 106 111
e 106 112
e 106 113
e 106 115
e 106 116
e 106 117
e 106 119
e 106 121
e 106 122
e 106 124
e 106 125
e 106 126
e 106 130
e 106 131
e 106 132
e 106 133
e 106 134
e 106 135
e 106 136
e 106 138
e 106 140
e 106 143
e 106 145
e 106 149
e 106 150
e 107 108
e 107 110
e 107 112
e 107 113
e 107 114
e 107 115
e 107 116
e 107 119
e 107 126
e 107 129
e 107 130
e 107 132
e 107 136
e 107 137
e 107 138
e 107 141
e 107 142
e 107 143
e 107 144
e 107 145
e 108 110
e 108 111
e 108 119
e 108 122
e 108 126
e 108 132
e 108 133
e 108 135
e 108 138
e 108 141
e 108 144
e 108 147
e 108 148
e 108 150
e 109 113
e 109 114
e 109 116
e 109 118
e 109 119
e 109 120
e 109 125
e 109 128
e 109 130
e 109 131
e 109 132
e 109 137
e 109 138
e 109 142
e 109 145
e 109 146
e 109 147
e 109 148
e 109 150
e 110 111
e 110 112
e 110 114
e 110 115
e 110 116
e 110 125
e 110 126
e 110 127
e 110 130
e 110 131
e 110 132
e 110 133
e 110 134
e 110 137
e 110 142
e 110 144
e 110 146
e 110 147
e 110 148
e 110 149
e 111 112
e 111 115
e 111 117
e 111 118
e 111 119
e 111 120
e 111 123
e 111 126
e 111 129
e 111 130
e 111 138
e 111 140
e 111 143
e 111 144
e 111 145
e 111 147
e 112 118
e 112 121
e 112 125
e 112 128
e 112 129
e 112 131
e 112 132
e 112 133
e 112 137
e 112 140
e 112 142
e 112 146
e 112 148
e 113 114
e 113 115
e 113 119
e 113 120
e 113 124
e 113 125
e 113 128
e 113 129
e 113 133
e 113 136
e 113 141
e 113 144
e 113 150
e 114 115
e 114 119
e 114 120
e 114 121
e 114 125
e 114 127
e 114 130
e 114 133
e 114 138
e 114 143
e 115 117
e 115 118
e 115 119
e 115 122
e 115 123
e 115 124
e 115 126
e 115 127
e 115 128
e 115 129
e 115 133
e 115 134
e 115 135
e 115 142
e 115 143
e 115 145
e 116 118
e 116 123
e 116 124
e 116 125
e 116 126
e 116 127
e 116 131
e 116 136
e 116 137
e 116 138
e 116 139
e 116 141
e 116 145
e 116 147
e 116 148
e 116 150
e 117 118
e 117 124
e 117 126
e 117 128
e 117 129
e 117 130
e 117 131
e 117 132
e 117 137
e 117 141
e 117 142
e 117 144
e 117 145
e 117 147
e 117 149
e 118 120
e 118 127
e 118 128
e 118 129
e 118 130
e 118 134
e 118 137
e 118 138
e 118 141
e 118 144
e 118 147
e 118 149
e 119 122
e 119 124
e 119 125
e 119 126
e 119 129
e 119 136
e 119 137
e 119 140
e 119 143
e 119 146
e 119 149
e 119 150
e 120 122
e 120 128
e 120 131
e 120 132
e 120 134
e 120 136
e 120 138
e 120 142
e 120 148
e 120 149
e 120 150
e 121 123
e 121 124
e 121 125
e 121 126
e 121 127
e 121 129
e 121 130
e 121 131
e 121 132
e 121 135
e 121 138
e 121 139
e 121 142
e 121 145
e 121 147
e 121 148
e 122 127
e 122 130
e 122 132
e 122 134
e 122 138
e 122 139
e 122 141
e 122 143
e 122 144
e 122 147
e 122 149
e 123 124
e 123 125
e 123 126
e 123 128
e 123 130
e 123 132
e 123 135
e 123 136
e 123 138
e 123 141
e 123 143
e 123 144
e 123 145
e 123 147
e 123 148
e 124 126
e 124 128
e 124 129
e 124 131
e 124 134
e 124 135
e 124 136
e 124 138
e 124 140
e 124 143
e 124 147
e 125 128
e 125 130
e 125 133
e 125 134
e 125 135
e 125 137
e 125 138
e 125 140
e 125 141
e 125 142
e 125 143
e 125 144
e 125 146
e 125 147
e 125 149
e 125 150
e 126 128
e 126 130
e 126 131
e 126 133
e 126 134
e 126 136
e 126 138
e 126 140
e 126 141
e 126 142
e 126 143
e 127 129
e 127 135
e 127 143
e 127 144
e 127 147
e 128 129
e 128 131
e 128 134
e 128 135
e 128 139
e 128 143
e 128 144
e 128 145
e 128 147
e 128 148
e 128 149
e 129 133
e 129 134
e 129 136
e 129 137
e 129 138
e 129 139
e 129 140
e 130 133
e 130 135
e 130 138
e 130 139
e 130 142
e 130 143
e 130 146
e 130 149
e 130 150
e 131 133
e 131 139
e 131 144
e 131 147
e 131 150
e 132 134
e 132 135
e 132 139
e 132 140
e 132 146
e 133 135
e 133 136
e 133 137
e 133 139
e 133 143
e 133 144
e 133 146
e 133 148
e 134 138
e 134 142
e 134 143
e 134 144
e 134 145
e 134 147
e 134 148
e 134 149
e 135 138
e 135 141
e 135 142
e 135 148
e 135 149
e 135 150
e 136 139
e 136 140
e 136 141
e 136 142
e 136 145
e 136 150
e 137 139
e 137 144
e 137 148
e 138 140
e 138 142
e 138 144
e 138 146
e 138 148
e 139 140
e 139 141
e 139 142
e 139 147
e 139 150
e 140 141
e 140 142
e 140 143
e 140 147
e 140 150
e 141 142
e 141 143
e 141 147
e 141 149
e 141 150
e 142 144
e 142 145
e 142 146
e 142 148
e 142 149
e 142 150
e 143 146
e 143 147
e 145 146
e 145 148
e 146 150
e 147 150
e 148 149
